#System Analysis

NCORE = 32
ENCUT = 185
ISMEAR = 0
SIGMA = 0.04
EDIFF = 1e-4
PREC = NORMAL
ALGO = NORMAL
LREAL=Auto

NSW=1000
IBRION=2
ISIF=3
