System 5
1.0
12.18 0 0
0 12.18 0
0 0 12.18
Si  
10  
Cartesian 
8.555516817447238 9.594889366701683 9.295717976912398 
10.115169783014503 9.48005610042812 10.883097207020684 
8.32722141167046 4.540463477911916 4.977473242392216 
10.242177360628585 5.264266250485848 5.85754717803011 
10.610129727482006 0.05278388109653295 5.771803927430958 
10.353246118721176 0.26044024882618694 3.5680874037563863 
2.152104026019653 6.4861508388003335 0.45168236261947003 
2.3484434506280745 4.2671310972114265 0.398025219496354 
6.085383033316964 3.202060034656277 0.6435942108703602 
6.765940068975965 2.172996726555866 2.4992201703140924 
